26
292 495
298 427
309 445
307 464
336 475
320 439
321 437
322 437
323 433
324 433
323 429
314 435
311 442
304 427
293 421
296 418
261 384
297 410
315 407
314 406
321 391
321 398
314 394
313 378
304 382
295 402